09-routing/solutions/XSH-n20-k4-02.opt.sol
Route #1: 14 19 5 20 16 7
Route #2: 10 12 9 8 13 3
Route #3: 18 4 6
Route #4: 15 11 2 17 1
Cost 650
